c 44_3_checker_6cl.cnf
c
c field = 44
c formula set type = 3_checker_6cl
c
p cnf 6 10
80 
82 
84 
-79 
-76 
-88 
81 
83 
85 
-78 
-77 
-89 
56 
116 
146 
-177 
-26 
-206 
57 
117 
147 
-176 
-27 
-207 
116 
146 
176 
-57 
-26 
-206 
117 
147 
177 
-56 
-27 
-207 
116 
146 
176 
-207 
-56 
-236 
117 
147 
177 
-206 
-57 
-237 
114 
142 
170 
-199 
-58 
-226 
115 
143 
171 
-198 
-59 
-227 
